18 115
8 7
17 15
1 2
1 4
6 15
6 0
9 3
13 9
5 4
15 4
11 4
0 3
15 16
0 14
17 5
8 5
10 15
3 5
13 1
5 9
6 11
3 4
4 16
2 3
4 10
0 13
15 12
12 13
15 11
2 9
9 14
8 10
1 7
15 8
6 2
5 14
11 12
9 17
2 11
16 14
10 1
13 11
15 13
6 12
12 9
11 1
5 7
16 3
3 12
7 13
16 12
2 13
1 16
14 10
4 17
17 14
14 11
9 10
11 16
6 1
10 11
5 15
13 3
6 13
15 3
17 16
13 5
14 8
15 14
10 6
3 8
0 8
0 15
7 16
11 0
0 4
9 1
9 4
12 2
11 5
0 16
9 7
10 16
12 8
11 17
7 11
5 16
2 5
9 15
17 6
3 1
8 13
2 8
3 10
0 9
17 7
7 15
14 2
8 6
7 0
0 12
6 16
1 0
14 4
10 0
10 13
3 6
0 2
7 3
17 0
16 9
16 13
9 8
17 13
11 3
